param n = 6;
param m = 4;


param f :=
1	1500000
2	1500000
3	1500000
4	1500000
;




param co :	1	2	3	4   :=
1  3.16 	3.3	3.36	2.18
2  3.16 	 3.3	3.24	1.84
3  1.84   2.88	2.96	3.16
4  2.02 	2.96	2.04	3.16
5  2.88	  1.84	2.02	3.36
6  2.98  	2.04	1.82	3.3
;


param p :=
1	20
2	20
3	20
4	20
; 


param h :=
1	50000
2	90000
3	120000
4	65000
5	120000
6	70000
;


param ca :=
1	1000000
2	1000000
3	1000000
4	1000000

;

